\ SCIP STATISTICS
\   Problem name     : misc05inf
\   Variables        : 136 (74 binary, 0 integer, 0 implicit integer, 62 continuous)
\   Constraints      : 301
Minimize
 Obj: +1 COL133
Subject to
 ROW001: +1 COL133 -1 COL134 -1 COL135 -1 COL136 = +0
 ROW002: -1000 COL129 -700 COL130 +1 COL134 = +0
 ROW003: -0.8 COL115 -0.8 COL116 -0.8 COL117 -0.8 COL118 -0.8 COL119 -0.8 COL120 -0.8 COL121 -1 COL122
  -1 COL123 -1 COL124 -1 COL125 -1 COL126 -1 COL127 -1 COL128 +1 COL135 = +0
 ROW004: -75 COL001 -60 COL002 -142.5 COL003 -97.5 COL004 -90 COL005 -120 COL006 -60 COL007 -120 COL008
  -75 COL009 -45 COL010 -60 COL011 -120 COL012 -75 COL013 -105 COL014 -45 COL015 -105 COL016 -60 COL017
  -45 COL018 -45 COL019 -60 COL020 -30 COL021 -60 COL022 -60 COL024 -142.5 COL025 -60 COL026 -45 COL027
  -82.5 COL028 -37.5 COL029 -45 COL030 -45 COL031 -45 COL032 -97.5 COL033 -120 COL034 -60 COL035 -82.5 COL036
  -30 COL037 -52.5 COL038 -60 COL039 -52.5 COL040 -90 COL041 -75 COL042 -30 COL043 -37.5 COL044 -30 COL045
  -30 COL046 -30 COL047 -30 COL048 -120 COL049 -105 COL050 -60 COL051 -45 COL052 -52.5 COL053 -30 COL054
  -60 COL055 -60 COL057 -45 COL058 -45 COL060 -60 COL061 -30 COL062 -60 COL063 -60 COL064 -120 COL065
  -105 COL066 -60 COL067 -45 COL068 -52.5 COL069 -30 COL070 -60 COL072 +1 COL136 = +0
 ROW005: +1 COL001 +1 COL002 +1 COL003 +1 COL004 +1 COL005 +1 COL006 +1 COL007 +1 COL008 = +1
 ROW006: +1 COL009 +1 COL010 +1 COL011 +1 COL012 +1 COL013 +1 COL014 +1 COL015 +1 COL016 = +1
 ROW007: +1 COL017 +1 COL018 +1 COL019 +1 COL020 +1 COL021 +1 COL022 +1 COL023 +1 COL024 = +1
 ROW008: +1 COL025 +1 COL026 +1 COL027 +1 COL028 +1 COL029 +1 COL030 +1 COL031 +1 COL032 = +1
 ROW009: +1 COL033 +1 COL034 +1 COL035 +1 COL036 +1 COL037 +1 COL038 +1 COL039 +1 COL040 = +1
 ROW010: +1 COL041 +1 COL042 +1 COL043 +1 COL044 +1 COL045 +1 COL046 +1 COL047 +1 COL048 = +1
 ROW011: +1 COL049 +1 COL050 +1 COL051 +1 COL052 +1 COL053 +1 COL054 +1 COL055 +1 COL056 = +1
 ROW012: +1 COL001 +1 COL002 +1 COL003 +1 COL004 +1 COL005 +1 COL006 +1 COL058 +1 COL059 +1 COL060 +1 COL061
  +1 COL062 +1 COL063 +1 COL066 +1 COL067 +1 COL068 +1 COL069 +1 COL070 +1 COL071 >= +1
 ROW013: +1 COL009 +1 COL010 +1 COL011 +1 COL012 +1 COL013 +1 COL014 +1 COL057 +1 COL059 +1 COL060 +1 COL061
  +1 COL062 +1 COL063 +1 COL065 +1 COL067 +1 COL068 +1 COL069 +1 COL070 +1 COL071 >= +1
 ROW014: +1 COL002 +1 COL003 +1 COL004 +1 COL005 +1 COL006 +1 COL010 +1 COL011 +1 COL012 +1 COL013 +1 COL014
  +1 COL059 +1 COL060 +1 COL061 +1 COL062 +1 COL063 +1 COL067 +1 COL068 +1 COL069 +1 COL070 +1 COL071
  >= +1
 ROW015: +1 COL017 +1 COL018 +1 COL019 +1 COL020 +1 COL021 +1 COL022 +1 COL057 +1 COL058 +1 COL060 +1 COL061
  +1 COL062 +1 COL063 +1 COL065 +1 COL066 +1 COL068 +1 COL069 +1 COL070 +1 COL071 >= +1
 ROW016: +1 COL001 +1 COL003 +1 COL004 +1 COL005 +1 COL006 +1 COL018 +1 COL019 +1 COL020 +1 COL021 +1 COL022
  +1 COL058 +1 COL060 +1 COL061 +1 COL062 +1 COL063 +1 COL066 +1 COL068 +1 COL069 +1 COL070 +1 COL071
  >= +1
 ROW017: +1 COL009 +1 COL011 +1 COL012 +1 COL013 +1 COL014 +1 COL017 +1 COL019 +1 COL020 +1 COL021 +1 COL022
  +1 COL057 +1 COL060 +1 COL061 +1 COL062 +1 COL063 +1 COL065 +1 COL068 +1 COL069 +1 COL070 +1 COL071
  >= +1
 ROW018: +1 COL003 +1 COL004 +1 COL005 +1 COL006 +1 COL011 +1 COL012 +1 COL013 +1 COL014 +1 COL019 +1 COL020
  +1 COL021 +1 COL022 +1 COL060 +1 COL061 +1 COL062 +1 COL063 +1 COL068 +1 COL069 +1 COL070 +1 COL071
  >= +1
 ROW019: +1 COL025 +1 COL026 +1 COL027 +1 COL028 +1 COL029 +1 COL030 +1 COL057 +1 COL058 +1 COL059 +1 COL061
  +1 COL062 +1 COL063 +1 COL065 +1 COL066 +1 COL067 +1 COL069 +1 COL070 +1 COL071 >= +1
 ROW020: +1 COL001 +1 COL002 +1 COL004 +1 COL005 +1 COL006 +1 COL026 +1 COL027 +1 COL028 +1 COL029 +1 COL030
  +1 COL058 +1 COL059 +1 COL061 +1 COL062 +1 COL063 +1 COL066 +1 COL067 +1 COL069 +1 COL070 +1 COL071
  >= +1
 ROW021: +1 COL009 +1 COL010 +1 COL012 +1 COL013 +1 COL014 +1 COL025 +1 COL027 +1 COL028 +1 COL029 +1 COL030
  +1 COL057 +1 COL059 +1 COL061 +1 COL062 +1 COL063 +1 COL065 +1 COL067 +1 COL069 +1 COL070 +1 COL071
  >= +1
 ROW022: +1 COL002 +1 COL004 +1 COL005 +1 COL006 +1 COL010 +1 COL012 +1 COL013 +1 COL014 +1 COL027 +1 COL028
  +1 COL029 +1 COL030 +1 COL059 +1 COL061 +1 COL062 +1 COL063 +1 COL067 +1 COL069 +1 COL070 +1 COL071
  >= +1
 ROW023: +1 COL017 +1 COL018 +1 COL020 +1 COL021 +1 COL022 +1 COL025 +1 COL026 +1 COL028 +1 COL029 +1 COL030
  +1 COL057 +1 COL058 +1 COL061 +1 COL062 +1 COL063 +1 COL065 +1 COL066 +1 COL069 +1 COL070 +1 COL071
  >= +1
 ROW024: +1 COL001 +1 COL004 +1 COL005 +1 COL006 +1 COL018 +1 COL020 +1 COL021 +1 COL022 +1 COL026 +1 COL028
  +1 COL029 +1 COL030 +1 COL058 +1 COL061 +1 COL062 +1 COL063 +1 COL066 +1 COL069 +1 COL070 +1 COL071
  >= +1
 ROW025: +1 COL009 +1 COL012 +1 COL013 +1 COL014 +1 COL017 +1 COL020 +1 COL021 +1 COL022 +1 COL025 +1 COL028
  +1 COL029 +1 COL030 +1 COL057 +1 COL061 +1 COL062 +1 COL063 +1 COL065 +1 COL069 +1 COL070 +1 COL071
  >= +1
 ROW026: +1 COL004 +1 COL005 +1 COL006 +1 COL012 +1 COL013 +1 COL014 +1 COL020 +1 COL021 +1 COL022 +1 COL028
  +1 COL029 +1 COL030 +1 COL061 +1 COL062 +1 COL063 +1 COL069 +1 COL070 +1 COL071 >= +1
 ROW027: +1 COL033 +1 COL034 +1 COL035 +1 COL036 +1 COL037 +1 COL038 +1 COL057 +1 COL058 +1 COL059 +1 COL060
  +1 COL062 +1 COL063 +1 COL065 +1 COL066 +1 COL067 +1 COL068 +1 COL070 +1 COL071 >= +1
 ROW028: +1 COL001 +1 COL002 +1 COL003 +1 COL005 +1 COL006 +1 COL034 +1 COL035 +1 COL036 +1 COL037 +1 COL038
  +1 COL058 +1 COL059 +1 COL060 +1 COL062 +1 COL063 +1 COL066 +1 COL067 +1 COL068 +1 COL070 +1 COL071
  >= +1
 ROW029: +1 COL009 +1 COL010 +1 COL011 +1 COL013 +1 COL014 +1 COL033 +1 COL035 +1 COL036 +1 COL037 +1 COL038
  +1 COL057 +1 COL059 +1 COL060 +1 COL062 +1 COL063 +1 COL065 +1 COL067 +1 COL068 +1 COL070 +1 COL071
  >= +1
 ROW030: +1 COL002 +1 COL003 +1 COL005 +1 COL006 +1 COL010 +1 COL011 +1 COL013 +1 COL014 +1 COL035 +1 COL036
  +1 COL037 +1 COL038 +1 COL059 +1 COL060 +1 COL062 +1 COL063 +1 COL067 +1 COL068 +1 COL070 +1 COL071
  >= +1
 ROW031: +1 COL017 +1 COL018 +1 COL019 +1 COL021 +1 COL022 +1 COL033 +1 COL034 +1 COL036 +1 COL037 +1 COL038
  +1 COL057 +1 COL058 +1 COL060 +1 COL062 +1 COL063 +1 COL065 +1 COL066 +1 COL068 +1 COL070 +1 COL071
  >= +1
 ROW032: +1 COL001 +1 COL003 +1 COL005 +1 COL006 +1 COL018 +1 COL019 +1 COL021 +1 COL022 +1 COL034 +1 COL036
  +1 COL037 +1 COL038 +1 COL058 +1 COL060 +1 COL062 +1 COL063 +1 COL066 +1 COL068 +1 COL070 +1 COL071
  >= +1
 ROW033: +1 COL009 +1 COL011 +1 COL013 +1 COL014 +1 COL017 +1 COL019 +1 COL021 +1 COL022 +1 COL033 +1 COL036
  +1 COL037 +1 COL038 +1 COL057 +1 COL060 +1 COL062 +1 COL063 +1 COL065 +1 COL068 +1 COL070 +1 COL071
  >= +1
 ROW034: +1 COL003 +1 COL005 +1 COL006 +1 COL011 +1 COL013 +1 COL014 +1 COL019 +1 COL021 +1 COL022 +1 COL036
  +1 COL037 +1 COL038 +1 COL060 +1 COL062 +1 COL063 +1 COL068 +1 COL070 +1 COL071 >= +1
 ROW035: +1 COL025 +1 COL026 +1 COL027 +1 COL029 +1 COL030 +1 COL033 +1 COL034 +1 COL035 +1 COL037 +1 COL038
  +1 COL057 +1 COL058 +1 COL059 +1 COL062 +1 COL063 +1 COL065 +1 COL066 +1 COL067 +1 COL070 +1 COL071
  >= +1
 ROW036: +1 COL001 +1 COL002 +1 COL005 +1 COL006 +1 COL026 +1 COL027 +1 COL029 +1 COL030 +1 COL034 +1 COL035
  +1 COL037 +1 COL038 +1 COL058 +1 COL059 +1 COL062 +1 COL063 +1 COL066 +1 COL067 +1 COL070 +1 COL071
  >= +1
 ROW037: +1 COL009 +1 COL010 +1 COL013 +1 COL014 +1 COL025 +1 COL027 +1 COL029 +1 COL030 +1 COL033 +1 COL035
  +1 COL037 +1 COL038 +1 COL057 +1 COL059 +1 COL062 +1 COL063 +1 COL065 +1 COL067 +1 COL070 +1 COL071
  >= +1
 ROW038: +1 COL002 +1 COL005 +1 COL006 +1 COL010 +1 COL013 +1 COL014 +1 COL027 +1 COL029 +1 COL030 +1 COL035
  +1 COL037 +1 COL038 +1 COL059 +1 COL062 +1 COL063 +1 COL067 +1 COL070 +1 COL071 >= +1
 ROW039: +1 COL017 +1 COL018 +1 COL021 +1 COL022 +1 COL025 +1 COL026 +1 COL029 +1 COL030 +1 COL033 +1 COL034
  +1 COL037 +1 COL038 +1 COL057 +1 COL058 +1 COL062 +1 COL063 +1 COL065 +1 COL066 +1 COL070 +1 COL071
  >= +1
 ROW040: +1 COL001 +1 COL005 +1 COL006 +1 COL018 +1 COL021 +1 COL022 +1 COL026 +1 COL029 +1 COL030 +1 COL034
  +1 COL037 +1 COL038 +1 COL058 +1 COL062 +1 COL063 +1 COL066 +1 COL070 +1 COL071 >= +1
 ROW041: +1 COL009 +1 COL013 +1 COL014 +1 COL017 +1 COL021 +1 COL022 +1 COL025 +1 COL029 +1 COL030 +1 COL033
  +1 COL037 +1 COL038 +1 COL057 +1 COL062 +1 COL063 +1 COL065 +1 COL070 +1 COL071 >= +1
 ROW042: +1 COL005 +1 COL006 +1 COL013 +1 COL014 +1 COL021 +1 COL022 +1 COL029 +1 COL030 +1 COL037 +1 COL038
  +1 COL062 +1 COL063 +1 COL070 +1 COL071 >= +1
 ROW043: +1 COL041 +1 COL042 +1 COL043 +1 COL044 +1 COL045 +1 COL046 +1 COL057 +1 COL058 +1 COL059 +1 COL060
  +1 COL061 +1 COL063 +1 COL065 +1 COL066 +1 COL067 +1 COL068 +1 COL069 +1 COL071 >= +1
 ROW044: +1 COL001 +1 COL002 +1 COL003 +1 COL004 +1 COL006 +1 COL042 +1 COL043 +1 COL044 +1 COL045 +1 COL046
  +1 COL058 +1 COL059 +1 COL060 +1 COL061 +1 COL063 +1 COL066 +1 COL067 +1 COL068 +1 COL069 +1 COL071
  >= +1
 ROW045: +1 COL009 +1 COL010 +1 COL011 +1 COL012 +1 COL014 +1 COL041 +1 COL043 +1 COL044 +1 COL045 +1 COL046
  +1 COL057 +1 COL059 +1 COL060 +1 COL061 +1 COL063 +1 COL065 +1 COL067 +1 COL068 +1 COL069 +1 COL071
  >= +1
 ROW046: +1 COL002 +1 COL003 +1 COL004 +1 COL006 +1 COL010 +1 COL011 +1 COL012 +1 COL014 +1 COL043 +1 COL044
  +1 COL045 +1 COL046 +1 COL059 +1 COL060 +1 COL061 +1 COL063 +1 COL067 +1 COL068 +1 COL069 +1 COL071
  >= +1
 ROW047: +1 COL017 +1 COL018 +1 COL019 +1 COL020 +1 COL022 +1 COL041 +1 COL042 +1 COL044 +1 COL045 +1 COL046
  +1 COL057 +1 COL058 +1 COL060 +1 COL061 +1 COL063 +1 COL065 +1 COL066 +1 COL068 +1 COL069 +1 COL071
  >= +1
 ROW048: +1 COL001 +1 COL003 +1 COL004 +1 COL006 +1 COL018 +1 COL019 +1 COL020 +1 COL022 +1 COL042 +1 COL044
  +1 COL045 +1 COL046 +1 COL058 +1 COL060 +1 COL061 +1 COL063 +1 COL066 +1 COL068 +1 COL069 +1 COL071
  >= +1
 ROW049: +1 COL009 +1 COL011 +1 COL012 +1 COL014 +1 COL017 +1 COL019 +1 COL020 +1 COL022 +1 COL041 +1 COL044
  +1 COL045 +1 COL046 +1 COL057 +1 COL060 +1 COL061 +1 COL063 +1 COL065 +1 COL068 +1 COL069 +1 COL071
  >= +1
 ROW050: +1 COL003 +1 COL004 +1 COL006 +1 COL011 +1 COL012 +1 COL014 +1 COL019 +1 COL020 +1 COL022 +1 COL044
  +1 COL045 +1 COL046 +1 COL060 +1 COL061 +1 COL063 +1 COL068 +1 COL069 +1 COL071 >= +1
 ROW051: +1 COL025 +1 COL026 +1 COL027 +1 COL028 +1 COL030 +1 COL041 +1 COL042 +1 COL043 +1 COL045 +1 COL046
  +1 COL057 +1 COL058 +1 COL059 +1 COL061 +1 COL063 +1 COL065 +1 COL066 +1 COL067 +1 COL069 +1 COL071
  >= +1
 ROW052: +1 COL001 +1 COL002 +1 COL004 +1 COL006 +1 COL026 +1 COL027 +1 COL028 +1 COL030 +1 COL042 +1 COL043
  +1 COL045 +1 COL046 +1 COL058 +1 COL059 +1 COL061 +1 COL063 +1 COL066 +1 COL067 +1 COL069 +1 COL071
  >= +1
 ROW053: +1 COL009 +1 COL010 +1 COL012 +1 COL014 +1 COL025 +1 COL027 +1 COL028 +1 COL030 +1 COL041 +1 COL043
  +1 COL045 +1 COL046 +1 COL057 +1 COL059 +1 COL061 +1 COL063 +1 COL065 +1 COL067 +1 COL069 +1 COL071
  >= +1
 ROW054: +1 COL002 +1 COL004 +1 COL006 +1 COL010 +1 COL012 +1 COL014 +1 COL027 +1 COL028 +1 COL030 +1 COL043
  +1 COL045 +1 COL046 +1 COL059 +1 COL061 +1 COL063 +1 COL067 +1 COL069 +1 COL071 >= +1
 ROW055: +1 COL017 +1 COL018 +1 COL020 +1 COL022 +1 COL025 +1 COL026 +1 COL028 +1 COL030 +1 COL041 +1 COL042
  +1 COL045 +1 COL046 +1 COL057 +1 COL058 +1 COL061 +1 COL063 +1 COL065 +1 COL066 +1 COL069 +1 COL071
  >= +1
 ROW056: +1 COL001 +1 COL004 +1 COL006 +1 COL018 +1 COL020 +1 COL022 +1 COL026 +1 COL028 +1 COL030 +1 COL042
  +1 COL045 +1 COL046 +1 COL058 +1 COL061 +1 COL063 +1 COL066 +1 COL069 +1 COL071 >= +1
 ROW057: +1 COL009 +1 COL012 +1 COL014 +1 COL017 +1 COL020 +1 COL022 +1 COL025 +1 COL028 +1 COL030 +1 COL041
  +1 COL045 +1 COL046 +1 COL057 +1 COL061 +1 COL063 +1 COL065 +1 COL069 +1 COL071 >= +1
 ROW058: +1 COL004 +1 COL006 +1 COL012 +1 COL014 +1 COL020 +1 COL022 +1 COL028 +1 COL030 +1 COL045 +1 COL046
  +1 COL061 +1 COL063 +1 COL069 +1 COL071 >= +1
 ROW059: +1 COL033 +1 COL034 +1 COL035 +1 COL036 +1 COL038 +1 COL041 +1 COL042 +1 COL043 +1 COL044 +1 COL046
  +1 COL057 +1 COL058 +1 COL059 +1 COL060 +1 COL063 +1 COL065 +1 COL066 +1 COL067 +1 COL068 +1 COL071
  >= +1
 ROW060: +1 COL001 +1 COL002 +1 COL003 +1 COL006 +1 COL034 +1 COL035 +1 COL036 +1 COL038 +1 COL042 +1 COL043
  +1 COL044 +1 COL046 +1 COL058 +1 COL059 +1 COL060 +1 COL063 +1 COL066 +1 COL067 +1 COL068 +1 COL071
  >= +1
 ROW061: +1 COL009 +1 COL010 +1 COL011 +1 COL014 +1 COL033 +1 COL035 +1 COL036 +1 COL038 +1 COL041 +1 COL043
  +1 COL044 +1 COL046 +1 COL057 +1 COL059 +1 COL060 +1 COL063 +1 COL065 +1 COL067 +1 COL068 +1 COL071
  >= +1
 ROW062: +1 COL002 +1 COL003 +1 COL006 +1 COL010 +1 COL011 +1 COL014 +1 COL035 +1 COL036 +1 COL038 +1 COL043
  +1 COL044 +1 COL046 +1 COL059 +1 COL060 +1 COL063 +1 COL067 +1 COL068 +1 COL071 >= +1
 ROW063: +1 COL017 +1 COL018 +1 COL019 +1 COL022 +1 COL033 +1 COL034 +1 COL036 +1 COL038 +1 COL041 +1 COL042
  +1 COL044 +1 COL046 +1 COL057 +1 COL058 +1 COL060 +1 COL063 +1 COL065 +1 COL066 +1 COL068 +1 COL071
  >= +1
 ROW064: +1 COL001 +1 COL003 +1 COL006 +1 COL018 +1 COL019 +1 COL022 +1 COL034 +1 COL036 +1 COL038 +1 COL042
  +1 COL044 +1 COL046 +1 COL058 +1 COL060 +1 COL063 +1 COL066 +1 COL068 +1 COL071 >= +1
 ROW065: +1 COL009 +1 COL011 +1 COL014 +1 COL017 +1 COL019 +1 COL022 +1 COL033 +1 COL036 +1 COL038 +1 COL041
  +1 COL044 +1 COL046 +1 COL057 +1 COL060 +1 COL063 +1 COL065 +1 COL068 +1 COL071 >= +1
 ROW066: +1 COL003 +1 COL006 +1 COL011 +1 COL014 +1 COL019 +1 COL022 +1 COL036 +1 COL038 +1 COL044 +1 COL046
  +1 COL060 +1 COL063 +1 COL068 +1 COL071 >= +1
 ROW067: +1 COL025 +1 COL026 +1 COL027 +1 COL030 +1 COL033 +1 COL034 +1 COL035 +1 COL038 +1 COL041 +1 COL042
  +1 COL043 +1 COL046 +1 COL057 +1 COL058 +1 COL059 +1 COL063 +1 COL065 +1 COL066 +1 COL067 +1 COL071
  >= +1
 ROW068: +1 COL001 +1 COL002 +1 COL006 +1 COL026 +1 COL027 +1 COL030 +1 COL034 +1 COL035 +1 COL038 +1 COL042
  +1 COL043 +1 COL046 +1 COL058 +1 COL059 +1 COL063 +1 COL066 +1 COL067 +1 COL071 >= +1
 ROW069: +1 COL009 +1 COL010 +1 COL014 +1 COL025 +1 COL027 +1 COL030 +1 COL033 +1 COL035 +1 COL038 +1 COL041
  +1 COL043 +1 COL046 +1 COL057 +1 COL059 +1 COL063 +1 COL065 +1 COL067 +1 COL071 >= +1
 ROW070: +1 COL002 +1 COL006 +1 COL010 +1 COL014 +1 COL027 +1 COL030 +1 COL035 +1 COL038 +1 COL043 +1 COL046
  +1 COL059 +1 COL063 +1 COL067 +1 COL071 >= +1
 ROW071: +1 COL017 +1 COL018 +1 COL022 +1 COL025 +1 COL026 +1 COL030 +1 COL033 +1 COL034 +1 COL038 +1 COL041
  +1 COL042 +1 COL046 +1 COL057 +1 COL058 +1 COL063 +1 COL065 +1 COL066 +1 COL071 >= +1
 ROW072: +1 COL001 +1 COL006 +1 COL018 +1 COL022 +1 COL026 +1 COL030 +1 COL034 +1 COL038 +1 COL042 +1 COL046
  +1 COL058 +1 COL063 +1 COL066 +1 COL071 >= +1
 ROW073: +1 COL009 +1 COL014 +1 COL017 +1 COL022 +1 COL025 +1 COL030 +1 COL033 +1 COL038 +1 COL041 +1 COL046
  +1 COL057 +1 COL063 +1 COL065 +1 COL071 >= +1
 ROW074: +1 COL006 +1 COL014 +1 COL022 +1 COL030 +1 COL038 +1 COL046 +1 COL063 +1 COL071 >= +1
 ROW075: +1 COL049 +1 COL050 +1 COL051 +1 COL052 +1 COL053 +1 COL054 +1 COL057 +1 COL058 +1 COL059 +1 COL060
  +1 COL061 +1 COL062 +1 COL065 +1 COL066 +1 COL067 +1 COL068 +1 COL069 +1 COL070 >= +1
 ROW076: +1 COL001 +1 COL002 +1 COL003 +1 COL004 +1 COL005 +1 COL050 +1 COL051 +1 COL052 +1 COL053 +1 COL054
  +1 COL058 +1 COL059 +1 COL060 +1 COL061 +1 COL062 +1 COL066 +1 COL067 +1 COL068 +1 COL069 +1 COL070
  >= +1
 ROW077: +1 COL009 +1 COL010 +1 COL011 +1 COL012 +1 COL013 +1 COL049 +1 COL051 +1 COL052 +1 COL053 +1 COL054
  +1 COL057 +1 COL059 +1 COL060 +1 COL061 +1 COL062 +1 COL065 +1 COL067 +1 COL068 +1 COL069 +1 COL070
  >= +1
 ROW078: +1 COL002 +1 COL003 +1 COL004 +1 COL005 +1 COL010 +1 COL011 +1 COL012 +1 COL013 +1 COL051 +1 COL052
  +1 COL053 +1 COL054 +1 COL059 +1 COL060 +1 COL061 +1 COL062 +1 COL067 +1 COL068 +1 COL069 +1 COL070
  >= +1
 ROW079: +1 COL017 +1 COL018 +1 COL019 +1 COL020 +1 COL021 +1 COL049 +1 COL050 +1 COL052 +1 COL053 +1 COL054
  +1 COL057 +1 COL058 +1 COL060 +1 COL061 +1 COL062 +1 COL065 +1 COL066 +1 COL068 +1 COL069 +1 COL070
  >= +1
 ROW080: +1 COL001 +1 COL003 +1 COL004 +1 COL005 +1 COL018 +1 COL019 +1 COL020 +1 COL021 +1 COL050 +1 COL052
  +1 COL053 +1 COL054 +1 COL058 +1 COL060 +1 COL061 +1 COL062 +1 COL066 +1 COL068 +1 COL069 +1 COL070
  >= +1
 ROW081: +1 COL009 +1 COL011 +1 COL012 +1 COL013 +1 COL017 +1 COL019 +1 COL020 +1 COL021 +1 COL049 +1 COL052
  +1 COL053 +1 COL054 +1 COL057 +1 COL060 +1 COL061 +1 COL062 +1 COL065 +1 COL068 +1 COL069 +1 COL070
  >= +1
 ROW082: +1 COL003 +1 COL004 +1 COL005 +1 COL011 +1 COL012 +1 COL013 +1 COL019 +1 COL020 +1 COL021 +1 COL052
  +1 COL053 +1 COL054 +1 COL060 +1 COL061 +1 COL062 +1 COL068 +1 COL069 +1 COL070 >= +1
 ROW083: +1 COL025 +1 COL026 +1 COL027 +1 COL028 +1 COL029 +1 COL049 +1 COL050 +1 COL051 +1 COL053 +1 COL054
  +1 COL057 +1 COL058 +1 COL059 +1 COL061 +1 COL062 +1 COL065 +1 COL066 +1 COL067 +1 COL069 +1 COL070
  >= +1
 ROW084: +1 COL001 +1 COL002 +1 COL004 +1 COL005 +1 COL026 +1 COL027 +1 COL028 +1 COL029 +1 COL050 +1 COL051
  +1 COL053 +1 COL054 +1 COL058 +1 COL059 +1 COL061 +1 COL062 +1 COL066 +1 COL067 +1 COL069 +1 COL070
  >= +1
 ROW085: +1 COL009 +1 COL010 +1 COL012 +1 COL013 +1 COL025 +1 COL027 +1 COL028 +1 COL029 +1 COL049 +1 COL051
  +1 COL053 +1 COL054 +1 COL057 +1 COL059 +1 COL061 +1 COL062 +1 COL065 +1 COL067 +1 COL069 +1 COL070
  >= +1
 ROW086: +1 COL002 +1 COL004 +1 COL005 +1 COL010 +1 COL012 +1 COL013 +1 COL027 +1 COL028 +1 COL029 +1 COL051
  +1 COL053 +1 COL054 +1 COL059 +1 COL061 +1 COL062 +1 COL067 +1 COL069 +1 COL070 >= +1
 ROW087: +1 COL017 +1 COL018 +1 COL020 +1 COL021 +1 COL025 +1 COL026 +1 COL028 +1 COL029 +1 COL049 +1 COL050
  +1 COL053 +1 COL054 +1 COL057 +1 COL058 +1 COL061 +1 COL062 +1 COL065 +1 COL066 +1 COL069 +1 COL070
  >= +1
 ROW088: +1 COL001 +1 COL004 +1 COL005 +1 COL018 +1 COL020 +1 COL021 +1 COL026 +1 COL028 +1 COL029 +1 COL050
  +1 COL053 +1 COL054 +1 COL058 +1 COL061 +1 COL062 +1 COL066 +1 COL069 +1 COL070 >= +1
 ROW089: +1 COL009 +1 COL012 +1 COL013 +1 COL017 +1 COL020 +1 COL021 +1 COL025 +1 COL028 +1 COL029 +1 COL049
  +1 COL053 +1 COL054 +1 COL057 +1 COL061 +1 COL062 +1 COL065 +1 COL069 +1 COL070 >= +1
 ROW090: +1 COL004 +1 COL005 +1 COL012 +1 COL013 +1 COL020 +1 COL021 +1 COL028 +1 COL029 +1 COL053 +1 COL054
  +1 COL061 +1 COL062 +1 COL069 +1 COL070 >= +1
 ROW091: +1 COL033 +1 COL034 +1 COL035 +1 COL036 +1 COL037 +1 COL049 +1 COL050 +1 COL051 +1 COL052 +1 COL054
  +1 COL057 +1 COL058 +1 COL059 +1 COL060 +1 COL062 +1 COL065 +1 COL066 +1 COL067 +1 COL068 +1 COL070
  >= +1
 ROW092: +1 COL001 +1 COL002 +1 COL003 +1 COL005 +1 COL034 +1 COL035 +1 COL036 +1 COL037 +1 COL050 +1 COL051
  +1 COL052 +1 COL054 +1 COL058 +1 COL059 +1 COL060 +1 COL062 +1 COL066 +1 COL067 +1 COL068 +1 COL070
  >= +1
 ROW093: +1 COL009 +1 COL010 +1 COL011 +1 COL013 +1 COL033 +1 COL035 +1 COL036 +1 COL037 +1 COL049 +1 COL051
  +1 COL052 +1 COL054 +1 COL057 +1 COL059 +1 COL060 +1 COL062 +1 COL065 +1 COL067 +1 COL068 +1 COL070
  >= +1
 ROW094: +1 COL002 +1 COL003 +1 COL005 +1 COL010 +1 COL011 +1 COL013 +1 COL035 +1 COL036 +1 COL037 +1 COL051
  +1 COL052 +1 COL054 +1 COL059 +1 COL060 +1 COL062 +1 COL067 +1 COL068 +1 COL070 >= +1
 ROW095: +1 COL017 +1 COL018 +1 COL019 +1 COL021 +1 COL033 +1 COL034 +1 COL036 +1 COL037 +1 COL049 +1 COL050
  +1 COL052 +1 COL054 +1 COL057 +1 COL058 +1 COL060 +1 COL062 +1 COL065 +1 COL066 +1 COL068 +1 COL070
  >= +1
 ROW096: +1 COL001 +1 COL003 +1 COL005 +1 COL018 +1 COL019 +1 COL021 +1 COL034 +1 COL036 +1 COL037 +1 COL050
  +1 COL052 +1 COL054 +1 COL058 +1 COL060 +1 COL062 +1 COL066 +1 COL068 +1 COL070 >= +1
 ROW097: +1 COL009 +1 COL011 +1 COL013 +1 COL017 +1 COL019 +1 COL021 +1 COL033 +1 COL036 +1 COL037 +1 COL049
  +1 COL052 +1 COL054 +1 COL057 +1 COL060 +1 COL062 +1 COL065 +1 COL068 +1 COL070 >= +1
 ROW098: +1 COL003 +1 COL005 +1 COL011 +1 COL013 +1 COL019 +1 COL021 +1 COL036 +1 COL037 +1 COL052 +1 COL054
  +1 COL060 +1 COL062 +1 COL068 +1 COL070 >= +1
 ROW099: +1 COL025 +1 COL026 +1 COL027 +1 COL029 +1 COL033 +1 COL034 +1 COL035 +1 COL037 +1 COL049 +1 COL050
  +1 COL051 +1 COL054 +1 COL057 +1 COL058 +1 COL059 +1 COL062 +1 COL065 +1 COL066 +1 COL067 +1 COL070
  >= +1
 ROW100: +1 COL001 +1 COL002 +1 COL005 +1 COL026 +1 COL027 +1 COL029 +1 COL034 +1 COL035 +1 COL037 +1 COL050
  +1 COL051 +1 COL054 +1 COL058 +1 COL059 +1 COL062 +1 COL066 +1 COL067 +1 COL070 >= +1
 ROW101: +1 COL009 +1 COL010 +1 COL013 +1 COL025 +1 COL027 +1 COL029 +1 COL033 +1 COL035 +1 COL037 +1 COL049
  +1 COL051 +1 COL054 +1 COL057 +1 COL059 +1 COL062 +1 COL065 +1 COL067 +1 COL070 >= +1
 ROW102: +1 COL002 +1 COL005 +1 COL010 +1 COL013 +1 COL027 +1 COL029 +1 COL035 +1 COL037 +1 COL051 +1 COL054
  +1 COL059 +1 COL062 +1 COL067 +1 COL070 >= +1
 ROW103: +1 COL017 +1 COL018 +1 COL021 +1 COL025 +1 COL026 +1 COL029 +1 COL033 +1 COL034 +1 COL037 +1 COL049
  +1 COL050 +1 COL054 +1 COL057 +1 COL058 +1 COL062 +1 COL065 +1 COL066 +1 COL070 >= +1
 ROW104: +1 COL001 +1 COL005 +1 COL018 +1 COL021 +1 COL026 +1 COL029 +1 COL034 +1 COL037 +1 COL050 +1 COL054
  +1 COL058 +1 COL062 +1 COL066 +1 COL070 >= +1
 ROW105: +1 COL009 +1 COL013 +1 COL017 +1 COL021 +1 COL025 +1 COL029 +1 COL033 +1 COL037 +1 COL049 +1 COL054
  +1 COL057 +1 COL062 +1 COL065 +1 COL070 >= +1
 ROW106: +1 COL005 +1 COL013 +1 COL021 +1 COL029 +1 COL037 +1 COL054 +1 COL062 +1 COL070 >= +1
 ROW107: +1 COL041 +1 COL042 +1 COL043 +1 COL044 +1 COL045 +1 COL049 +1 COL050 +1 COL051 +1 COL052 +1 COL053
  +1 COL057 +1 COL058 +1 COL059 +1 COL060 +1 COL061 +1 COL065 +1 COL066 +1 COL067 +1 COL068 +1 COL069
  >= +1
 ROW108: +1 COL001 +1 COL002 +1 COL003 +1 COL004 +1 COL042 +1 COL043 +1 COL044 +1 COL045 +1 COL050 +1 COL051
  +1 COL052 +1 COL053 +1 COL058 +1 COL059 +1 COL060 +1 COL061 +1 COL066 +1 COL067 +1 COL068 +1 COL069
  >= +1
 ROW109: +1 COL009 +1 COL010 +1 COL011 +1 COL012 +1 COL041 +1 COL043 +1 COL044 +1 COL045 +1 COL049 +1 COL051
  +1 COL052 +1 COL053 +1 COL057 +1 COL059 +1 COL060 +1 COL061 +1 COL065 +1 COL067 +1 COL068 +1 COL069
  >= +1
 ROW110: +1 COL002 +1 COL003 +1 COL004 +1 COL010 +1 COL011 +1 COL012 +1 COL043 +1 COL044 +1 COL045 +1 COL051
  +1 COL052 +1 COL053 +1 COL059 +1 COL060 +1 COL061 +1 COL067 +1 COL068 +1 COL069 >= +1
 ROW111: +1 COL017 +1 COL018 +1 COL019 +1 COL020 +1 COL041 +1 COL042 +1 COL044 +1 COL045 +1 COL049 +1 COL050
  +1 COL052 +1 COL053 +1 COL057 +1 COL058 +1 COL060 +1 COL061 +1 COL065 +1 COL066 +1 COL068 +1 COL069
  >= +1
 ROW112: +1 COL001 +1 COL003 +1 COL004 +1 COL018 +1 COL019 +1 COL020 +1 COL042 +1 COL044 +1 COL045 +1 COL050
  +1 COL052 +1 COL053 +1 COL058 +1 COL060 +1 COL061 +1 COL066 +1 COL068 +1 COL069 >= +1
 ROW113: +1 COL009 +1 COL011 +1 COL012 +1 COL017 +1 COL019 +1 COL020 +1 COL041 +1 COL044 +1 COL045 +1 COL049
  +1 COL052 +1 COL053 +1 COL057 +1 COL060 +1 COL061 +1 COL065 +1 COL068 +1 COL069 >= +1
 ROW114: +1 COL003 +1 COL004 +1 COL011 +1 COL012 +1 COL019 +1 COL020 +1 COL044 +1 COL045 +1 COL052 +1 COL053
  +1 COL060 +1 COL061 +1 COL068 +1 COL069 >= +1
 ROW115: +1 COL025 +1 COL026 +1 COL027 +1 COL028 +1 COL041 +1 COL042 +1 COL043 +1 COL045 +1 COL049 +1 COL050
  +1 COL051 +1 COL053 +1 COL057 +1 COL058 +1 COL059 +1 COL061 +1 COL065 +1 COL066 +1 COL067 +1 COL069
  >= +1
 ROW116: +1 COL001 +1 COL002 +1 COL004 +1 COL026 +1 COL027 +1 COL028 +1 COL042 +1 COL043 +1 COL045 +1 COL050
  +1 COL051 +1 COL053 +1 COL058 +1 COL059 +1 COL061 +1 COL066 +1 COL067 +1 COL069 >= +1
 ROW117: +1 COL009 +1 COL010 +1 COL012 +1 COL025 +1 COL027 +1 COL028 +1 COL041 +1 COL043 +1 COL045 +1 COL049
  +1 COL051 +1 COL053 +1 COL057 +1 COL059 +1 COL061 +1 COL065 +1 COL067 +1 COL069 >= +1
 ROW118: +1 COL002 +1 COL004 +1 COL010 +1 COL012 +1 COL027 +1 COL028 +1 COL043 +1 COL045 +1 COL051 +1 COL053
  +1 COL059 +1 COL061 +1 COL067 +1 COL069 >= +1
 ROW119: +1 COL017 +1 COL018 +1 COL020 +1 COL025 +1 COL026 +1 COL028 +1 COL041 +1 COL042 +1 COL045 +1 COL049
  +1 COL050 +1 COL053 +1 COL057 +1 COL058 +1 COL061 +1 COL065 +1 COL066 +1 COL069 >= +1
 ROW120: +1 COL001 +1 COL004 +1 COL018 +1 COL020 +1 COL026 +1 COL028 +1 COL042 +1 COL045 +1 COL050 +1 COL053
  +1 COL058 +1 COL061 +1 COL066 +1 COL069 >= +1
 ROW121: +1 COL009 +1 COL012 +1 COL017 +1 COL020 +1 COL025 +1 COL028 +1 COL041 +1 COL045 +1 COL049 +1 COL053
  +1 COL057 +1 COL061 +1 COL065 +1 COL069 >= +1
 ROW122: +1 COL004 +1 COL012 +1 COL020 +1 COL028 +1 COL045 +1 COL053 +1 COL061 +1 COL069 >= +1
 ROW123: +1 COL033 +1 COL034 +1 COL035 +1 COL036 +1 COL041 +1 COL042 +1 COL043 +1 COL044 +1 COL049 +1 COL050
  +1 COL051 +1 COL052 +1 COL057 +1 COL058 +1 COL059 +1 COL060 +1 COL065 +1 COL066 +1 COL067 +1 COL068
  >= +1
 ROW124: +1 COL001 +1 COL002 +1 COL003 +1 COL034 +1 COL035 +1 COL036 +1 COL042 +1 COL043 +1 COL044 +1 COL050
  +1 COL051 +1 COL052 +1 COL058 +1 COL059 +1 COL060 +1 COL066 +1 COL067 +1 COL068 >= +1
 ROW125: +1 COL009 +1 COL010 +1 COL011 +1 COL033 +1 COL035 +1 COL036 +1 COL041 +1 COL043 +1 COL044 +1 COL049
  +1 COL051 +1 COL052 +1 COL057 +1 COL059 +1 COL060 +1 COL065 +1 COL067 +1 COL068 >= +1
 ROW126: +1 COL002 +1 COL003 +1 COL010 +1 COL011 +1 COL035 +1 COL036 +1 COL043 +1 COL044 +1 COL051 +1 COL052
  +1 COL059 +1 COL060 +1 COL067 +1 COL068 >= +1
 ROW127: +1 COL017 +1 COL018 +1 COL019 +1 COL033 +1 COL034 +1 COL036 +1 COL041 +1 COL042 +1 COL044 +1 COL049
  +1 COL050 +1 COL052 +1 COL057 +1 COL058 +1 COL060 +1 COL065 +1 COL066 +1 COL068 >= +1
 ROW128: +1 COL001 +1 COL003 +1 COL018 +1 COL019 +1 COL034 +1 COL036 +1 COL042 +1 COL044 +1 COL050 +1 COL052
  +1 COL058 +1 COL060 +1 COL066 +1 COL068 >= +1
 ROW129: +1 COL009 +1 COL011 +1 COL017 +1 COL019 +1 COL033 +1 COL036 +1 COL041 +1 COL044 +1 COL049 +1 COL052
  +1 COL057 +1 COL060 +1 COL065 +1 COL068 >= +1
 ROW130: +1 COL003 +1 COL011 +1 COL019 +1 COL036 +1 COL044 +1 COL052 +1 COL060 +1 COL068 >= +1
 ROW131: +1 COL025 +1 COL026 +1 COL027 +1 COL033 +1 COL034 +1 COL035 +1 COL041 +1 COL042 +1 COL043 +1 COL049
  +1 COL050 +1 COL051 +1 COL057 +1 COL058 +1 COL059 +1 COL065 +1 COL066 +1 COL067 >= +1
 ROW132: +1 COL001 +1 COL002 +1 COL026 +1 COL027 +1 COL034 +1 COL035 +1 COL042 +1 COL043 +1 COL050 +1 COL051
  +1 COL058 +1 COL059 +1 COL066 +1 COL067 >= +1
 ROW133: +1 COL009 +1 COL010 +1 COL025 +1 COL027 +1 COL033 +1 COL035 +1 COL041 +1 COL043 +1 COL049 +1 COL051
  +1 COL057 +1 COL059 +1 COL065 +1 COL067 >= +1
 ROW134: +1 COL002 +1 COL010 +1 COL027 +1 COL035 +1 COL043 +1 COL051 +1 COL059 +1 COL067 >= +1
 ROW135: +1 COL017 +1 COL018 +1 COL025 +1 COL026 +1 COL033 +1 COL034 +1 COL041 +1 COL042 +1 COL049 +1 COL050
  +1 COL057 +1 COL058 +1 COL065 +1 COL066 >= +1
 ROW136: +1 COL001 +1 COL018 +1 COL026 +1 COL034 +1 COL042 +1 COL050 +1 COL058 +1 COL066 >= +1
 ROW137: +1 COL009 +1 COL017 +1 COL025 +1 COL033 +1 COL041 +1 COL049 +1 COL057 +1 COL065 >= +1
 ROW138: +1 COL057 +1 COL058 +1 COL059 +1 COL060 +1 COL061 +1 COL062 +1 COL063 +1 COL065 +1 COL066 +1 COL067
  +1 COL068 +1 COL069 +1 COL070 +1 COL071 >= +1
 ROW139: +1 COL001 +1 COL002 +1 COL003 +1 COL004 +1 COL005 +1 COL006 +1 COL007 +1 COL008 -1 COL009 -1 COL017
  -1 COL025 -1 COL033 -1 COL041 -1 COL049 -1 COL057 -1 COL065 = +0
 ROW140: -1 COL001 +1 COL009 +1 COL010 +1 COL011 +1 COL012 +1 COL013 +1 COL014 +1 COL015 +1 COL016 -1 COL018
  -1 COL026 -1 COL034 -1 COL042 -1 COL050 -1 COL058 -1 COL066 = +0
 ROW141: -1 COL002 -1 COL010 +1 COL017 +1 COL018 +1 COL019 +1 COL020 +1 COL021 +1 COL022 +1 COL023 +1 COL024
  -1 COL027 -1 COL035 -1 COL043 -1 COL051 -1 COL059 -1 COL067 = +0
 ROW142: -1 COL003 -1 COL011 -1 COL019 +1 COL025 +1 COL026 +1 COL027 +1 COL028 +1 COL029 +1 COL030 +1 COL031
  +1 COL032 -1 COL036 -1 COL044 -1 COL052 -1 COL060 -1 COL068 = +0
 ROW143: -1 COL004 -1 COL012 -1 COL020 -1 COL028 +1 COL033 +1 COL034 +1 COL035 +1 COL036 +1 COL037 +1 COL038
  +1 COL039 +1 COL040 -1 COL045 -1 COL053 -1 COL061 -1 COL069 = +0
 ROW144: -1 COL005 -1 COL013 -1 COL021 -1 COL029 -1 COL037 +1 COL041 +1 COL042 +1 COL043 +1 COL044 +1 COL045
  +1 COL046 +1 COL047 +1 COL048 -1 COL054 -1 COL062 -1 COL070 = +0
 ROW145: -1 COL006 -1 COL014 -1 COL022 -1 COL030 -1 COL038 -1 COL046 +1 COL049 +1 COL050 +1 COL051 +1 COL052
  +1 COL053 +1 COL054 +1 COL055 +1 COL056 -1 COL063 -1 COL071 = +0
 ROW146: -1 COL007 -1 COL015 -1 COL023 -1 COL031 -1 COL039 -1 COL047 -1 COL055 +1 COL057 +1 COL058 +1 COL059
  +1 COL060 +1 COL061 +1 COL062 +1 COL063 +1 COL064 -1 COL072 = +0
 ROW147: -1 COL008 -1 COL016 -1 COL024 -1 COL032 -1 COL040 -1 COL048 -1 COL056 -1 COL064 +1 COL065 +1 COL066
  +1 COL067 +1 COL068 +1 COL069 +1 COL070 +1 COL071 +1 COL072 = +0
 ROW148: +1 COL073 +1 COL074 +1 COL075 +1 COL076 +1 COL077 +1 COL078 -1 COL079 -1 COL085 -1 COL091 -1 COL097
  -1 COL103 -1 COL109 -1 COL115 -1 COL122 = -300
 ROW149: -1 COL073 +1 COL079 +1 COL080 +1 COL081 +1 COL082 +1 COL083 +1 COL084 -1 COL086 -1 COL092 -1 COL098
  -1 COL104 -1 COL110 -1 COL116 -1 COL123 = -40
 ROW150: -1 COL074 -1 COL080 +1 COL085 +1 COL086 +1 COL087 +1 COL088 +1 COL089 +1 COL090 -1 COL093 -1 COL099
  -1 COL105 -1 COL111 -1 COL117 -1 COL124 = -200
 ROW151: -1 COL075 -1 COL081 -1 COL087 +1 COL091 +1 COL092 +1 COL093 +1 COL094 +1 COL095 +1 COL096 -1 COL100
  -1 COL106 -1 COL112 -1 COL118 -1 COL125 = -250
 ROW152: -1 COL076 -1 COL082 -1 COL088 -1 COL094 +1 COL097 +1 COL098 +1 COL099 +1 COL100 +1 COL101 +1 COL102
  -1 COL107 -1 COL113 -1 COL119 -1 COL126 = -60
 ROW153: -1 COL077 -1 COL083 -1 COL089 -1 COL095 -1 COL101 +1 COL103 +1 COL104 +1 COL105 +1 COL106 +1 COL107
  +1 COL108 -1 COL114 -1 COL120 -1 COL127 = -30
 ROW154: -1 COL078 -1 COL084 -1 COL090 -1 COL096 -1 COL102 -1 COL108 +1 COL109 +1 COL110 +1 COL111 +1 COL112
  +1 COL113 +1 COL114 -1 COL121 -1 COL128 = -180
 ROW155: +1 COL007 +1 COL015 +1 COL023 +1 COL031 +1 COL039 +1 COL047 +1 COL055 -1 COL131 = +0
 ROW156: +1 COL008 +1 COL016 +1 COL024 +1 COL032 +1 COL040 +1 COL048 +1 COL056 -1 COL132 = +0
 ROW157: +1 COL115 +1 COL116 +1 COL117 +1 COL118 +1 COL119 +1 COL120 +1 COL121 -800 COL129 <= +0
 ROW158: +1 COL122 +1 COL123 +1 COL124 +1 COL125 +1 COL126 +1 COL127 +1 COL128 -500 COL130 <= +0
 ROW159: +1 COL057 -1 COL129 <= +0
 ROW160: +1 COL058 -1 COL129 <= +0
 ROW161: +1 COL059 -1 COL129 <= +0
 ROW162: +1 COL060 -1 COL129 <= +0
 ROW163: +1 COL061 -1 COL129 <= +0
 ROW164: +1 COL062 -1 COL129 <= +0
 ROW165: +1 COL063 -1 COL129 <= +0
 ROW166: +1 COL065 -1 COL130 <= +0
 ROW167: +1 COL066 -1 COL130 <= +0
 ROW168: +1 COL067 -1 COL130 <= +0
 ROW169: +1 COL068 -1 COL130 <= +0
 ROW170: +1 COL069 -1 COL130 <= +0
 ROW171: +1 COL070 -1 COL130 <= +0
 ROW172: +1 COL071 -1 COL130 <= +0
 ROW173: +1 COL007 -1 COL129 <= +0
 ROW174: +1 COL015 -1 COL129 <= +0
 ROW175: +1 COL023 -1 COL129 <= +0
 ROW176: +1 COL031 -1 COL129 <= +0
 ROW177: +1 COL039 -1 COL129 <= +0
 ROW178: +1 COL047 -1 COL129 <= +0
 ROW179: +1 COL055 -1 COL129 <= +0
 ROW180: +1 COL008 -1 COL130 <= +0
 ROW181: +1 COL016 -1 COL130 <= +0
 ROW182: +1 COL024 -1 COL130 <= +0
 ROW183: +1 COL032 -1 COL130 <= +0
 ROW184: +1 COL040 -1 COL130 <= +0
 ROW185: +1 COL048 -1 COL130 <= +0
 ROW186: +1 COL056 -1 COL130 <= +0
 ROW187: +1 COL129 +1 COL130 >= +2
 ROW188: +1 COL131 +1 COL132 <= +4
 ROW189: -200 COL001 +1 COL073 <= +0
 ROW190: -200 COL002 +1 COL074 <= +0
 ROW191: -200 COL003 +1 COL075 <= +0
 ROW192: -200 COL004 +1 COL076 <= +0
 ROW193: -200 COL005 +1 COL077 <= +0
 ROW194: -200 COL006 +1 COL078 <= +0
 ROW195: -460 COL009 +1 COL079 <= +0
 ROW196: -460 COL010 +1 COL080 <= +0
 ROW197: -460 COL011 +1 COL081 <= +0
 ROW198: -460 COL012 +1 COL082 <= +0
 ROW199: -460 COL013 +1 COL083 <= +0
 ROW200: -460 COL014 +1 COL084 <= +0
 ROW201: -300 COL017 +1 COL085 <= +0
 ROW202: -300 COL018 +1 COL086 <= +0
 ROW203: -300 COL019 +1 COL087 <= +0
 ROW204: -300 COL020 +1 COL088 <= +0
 ROW205: -300 COL021 +1 COL089 <= +0
 ROW206: -300 COL022 +1 COL090 <= +0
 ROW207: -250 COL025 +1 COL091 <= +0
 ROW208: -250 COL026 +1 COL092 <= +0
 ROW209: -250 COL027 +1 COL093 <= +0
 ROW210: -250 COL028 +1 COL094 <= +0
 ROW211: -250 COL029 +1 COL095 <= +0
 ROW212: -250 COL030 +1 COL096 <= +0
 ROW213: -440 COL033 +1 COL097 <= +0
 ROW214: -440 COL034 +1 COL098 <= +0
 ROW215: -440 COL035 +1 COL099 <= +0
 ROW216: -440 COL036 +1 COL100 <= +0
 ROW217: -440 COL037 +1 COL101 <= +0
 ROW218: -440 COL038 +1 COL102 <= +0
 ROW219: -470 COL041 +1 COL103 <= +0
 ROW220: -470 COL042 +1 COL104 <= +0
 ROW221: -470 COL043 +1 COL105 <= +0
 ROW222: -470 COL044 +1 COL106 <= +0
 ROW223: -470 COL045 +1 COL107 <= +0
 ROW224: -470 COL046 +1 COL108 <= +0
 ROW225: -320 COL049 +1 COL109 <= +0
 ROW226: -320 COL050 +1 COL110 <= +0
 ROW227: -320 COL051 +1 COL111 <= +0
 ROW228: -320 COL052 +1 COL112 <= +0
 ROW229: -320 COL053 +1 COL113 <= +0
 ROW230: -320 COL054 +1 COL114 <= +0
 ROW231: -500 COL057 +1 COL115 <= +0
 ROW232: -500 COL058 +1 COL116 <= +0
 ROW233: -500 COL059 +1 COL117 <= +0
 ROW234: -500 COL060 +1 COL118 <= +0
 ROW235: -500 COL061 +1 COL119 <= +0
 ROW236: -500 COL062 +1 COL120 <= +0
 ROW237: -500 COL063 +1 COL121 <= +0
 ROW238: -500 COL065 +1 COL122 <= +0
 ROW239: -500 COL066 +1 COL123 <= +0
 ROW240: -500 COL067 +1 COL124 <= +0
 ROW241: -500 COL068 +1 COL125 <= +0
 ROW242: -500 COL069 +1 COL126 <= +0
 ROW243: -500 COL070 +1 COL127 <= +0
 ROW244: -500 COL071 +1 COL128 <= +0
 ROW245: -40 COL001 +1 COL073 >= +0
 ROW246: -200 COL002 +1 COL074 >= +0
 ROW247: -250 COL003 +1 COL075 >= +0
 ROW248: -60 COL004 +1 COL076 >= +0
 ROW249: -30 COL005 +1 COL077 >= +0
 ROW250: -180 COL006 +1 COL078 >= +0
 ROW251: -300 COL009 +1 COL079 >= +0
 ROW252: -200 COL010 +1 COL080 >= +0
 ROW253: -250 COL011 +1 COL081 >= +0
 ROW254: -60 COL012 +1 COL082 >= +0
 ROW255: -30 COL013 +1 COL083 >= +0
 ROW256: -180 COL014 +1 COL084 >= +0
 ROW257: -300 COL017 +1 COL085 >= +0
 ROW258: -40 COL018 +1 COL086 >= +0
 ROW259: -250 COL019 +1 COL087 >= +0
 ROW260: -60 COL020 +1 COL088 >= +0
 ROW261: -30 COL021 +1 COL089 >= +0
 ROW262: -180 COL022 +1 COL090 >= +0
 ROW263: -300 COL025 +1 COL091 >= +0
 ROW264: -40 COL026 +1 COL092 >= +0
 ROW265: -200 COL027 +1 COL093 >= +0
 ROW266: -60 COL028 +1 COL094 >= +0
 ROW267: -30 COL029 +1 COL095 >= +0
 ROW268: -180 COL030 +1 COL096 >= +0
 ROW269: -300 COL033 +1 COL097 >= +0
 ROW270: -40 COL034 +1 COL098 >= +0
 ROW271: -200 COL035 +1 COL099 >= +0
 ROW272: -250 COL036 +1 COL100 >= +0
 ROW273: -30 COL037 +1 COL101 >= +0
 ROW274: -180 COL038 +1 COL102 >= +0
 ROW275: -300 COL041 +1 COL103 >= +0
 ROW276: -40 COL042 +1 COL104 >= +0
 ROW277: -200 COL043 +1 COL105 >= +0
 ROW278: -250 COL044 +1 COL106 >= +0
 ROW279: -60 COL045 +1 COL107 >= +0
 ROW280: -180 COL046 +1 COL108 >= +0
 ROW281: -300 COL049 +1 COL109 >= +0
 ROW282: -40 COL050 +1 COL110 >= +0
 ROW283: -200 COL051 +1 COL111 >= +0
 ROW284: -250 COL052 +1 COL112 >= +0
 ROW285: -60 COL053 +1 COL113 >= +0
 ROW286: -30 COL054 +1 COL114 >= +0
 ROW287: -300 COL057 +1 COL115 >= +0
 ROW288: -40 COL058 +1 COL116 >= +0
 ROW289: -200 COL059 +1 COL117 >= +0
 ROW290: -250 COL060 +1 COL118 >= +0
 ROW291: -60 COL061 +1 COL119 >= +0
 ROW292: -30 COL062 +1 COL120 >= +0
 ROW293: -180 COL063 +1 COL121 >= +0
 ROW294: -300 COL065 +1 COL122 >= +0
 ROW295: -40 COL066 +1 COL123 >= +0
 ROW296: -200 COL067 +1 COL124 >= +0
 ROW297: -250 COL068 +1 COL125 >= +0
 ROW298: -60 COL069 +1 COL126 >= +0
 ROW299: -30 COL070 +1 COL127 >= +0
 ROW300: -180 COL071 +1 COL128 >= +0
 c301: +1 COL133 <= +2950
Bounds
 0 <= COL129 <= 1
 0 <= COL001 <= 1
 0 <= COL002 <= 1
 0 <= COL003 <= 1
 0 <= COL004 <= 1
 0 <= COL005 <= 1
 0 <= COL006 <= 1
 0 <= COL007 <= 1
 0 <= COL008 <= 1
 0 <= COL009 <= 1
 0 <= COL010 <= 1
 0 <= COL011 <= 1
 0 <= COL012 <= 1
 0 <= COL013 <= 1
 0 <= COL014 <= 1
 0 <= COL015 <= 1
 0 <= COL016 <= 1
 0 <= COL017 <= 1
 0 <= COL018 <= 1
 0 <= COL019 <= 1
 0 <= COL020 <= 1
 0 <= COL021 <= 1
 0 <= COL022 <= 1
 0 <= COL023 <= 1
 0 <= COL024 <= 1
 0 <= COL025 <= 1
 0 <= COL026 <= 1
 0 <= COL027 <= 1
 0 <= COL028 <= 1
 0 <= COL029 <= 1
 0 <= COL030 <= 1
 0 <= COL031 <= 1
 0 <= COL032 <= 1
 0 <= COL033 <= 1
 0 <= COL034 <= 1
 0 <= COL035 <= 1
 0 <= COL036 <= 1
 0 <= COL037 <= 1
 0 <= COL038 <= 1
 0 <= COL039 <= 1
 0 <= COL040 <= 1
 0 <= COL041 <= 1
 0 <= COL042 <= 1
 0 <= COL043 <= 1
 0 <= COL044 <= 1
 0 <= COL045 <= 1
 0 <= COL046 <= 1
 0 <= COL047 <= 1
 0 <= COL048 <= 1
 0 <= COL049 <= 1
 0 <= COL050 <= 1
 0 <= COL051 <= 1
 0 <= COL052 <= 1
 0 <= COL053 <= 1
 0 <= COL054 <= 1
 0 <= COL055 <= 1
 0 <= COL056 <= 1
 0 <= COL057 <= 1
 0 <= COL058 <= 1
 0 <= COL059 <= 1
 0 <= COL060 <= 1
 0 <= COL061 <= 1
 0 <= COL062 <= 1
 0 <= COL063 <= 1
 0 <= COL064 <= 1
 0 <= COL065 <= 1
 0 <= COL066 <= 1
 0 <= COL067 <= 1
 0 <= COL068 <= 1
 0 <= COL069 <= 1
 0 <= COL070 <= 1
 0 <= COL071 <= 1
 0 <= COL072 <= 1
 0 <= COL130 <= 1
 COL131 free
 COL132 free
 COL133 free
 COL134 free
 COL135 free
 COL136 free
Binaries
 COL129 COL001 COL002 COL003 COL004 COL005 COL006 COL007 COL008 COL009 COL010 COL011 COL012 COL013 COL014
 COL015 COL016 COL017 COL018 COL019 COL020 COL021 COL022 COL023 COL024 COL025 COL026 COL027 COL028 COL029
 COL030 COL031 COL032 COL033 COL034 COL035 COL036 COL037 COL038 COL039 COL040 COL041 COL042 COL043 COL044
 COL045 COL046 COL047 COL048 COL049 COL050 COL051 COL052 COL053 COL054 COL055 COL056 COL057 COL058 COL059
 COL060 COL061 COL062 COL063 COL064 COL065 COL066 COL067 COL068 COL069 COL070 COL071 COL072 COL130
End
